outputs/case_170.model.txt
capital_adequacy_ratio = 100
improvement_plan_approved = True
capital_level_4_measures_completed = False
financial_deterioration = True
net_worth_ratio = 3/2
net_worth = 10
internal_handling_established = True
prohibited_actions_without_consent = False
capital_level_4_noncompliance = False
enter_major_contract = False
internal_handling_ok = True
capital_level = 3
other_major_financial_acts = False
financial_deterioration_noncompliance = False
internal_control_executed = True
exceed_payment_limit = False
penalty = False
internal_handling_executed = True
internal_control_established = True
internal_control_ok = True